10  10
  0  8  1  92  2  39  3  92  4  59  5  40  6  96  7  6  8  12  9  41
  0  78  1  49  2  42  3  85  4  48  5  81  6  20  7  63  8  52  9  30
  0  90  1  34  2  7  3  95  4  70  5  28  6  93  7  52  8  24  9  91
  0  33  1  94  2  50  3  49  4  94  5  82  6  98  7  49  8  48  9  97
  0  94  1  2  2  79  3  4  4  37  5  42  6  15  7  79  8  2  9  66
  0  35  1  65  2  67  3  32  4  68  5  36  6  43  7  7  8  94  9  9
  0  64  1  26  2  4  3  24  4  87  5  78  6  81  7  78  8  2  9  29
  0  25  1  89  2  31  3  67  4  8  5  16  6  7  7  19  8  42  9  74
  0  25  1  64  2  24  3  26  4  21  5  60  6  32  7  5  8  24  9  60
  0  37  1  36  2  74  3  50  4  49  5  58  6  26  7  86  8  73  9  31
